
ASes= { 1, 2, 3, 4, 5, 6, 7, 8, 9, 10 } ;


Objects= { 1, 2, 3, 4, 5, 6, 7, 8, 9, 10 } ;


QualityLevels= { 0, 1, 2, 3, 4, 5 } ;

Arcs = { <1,2,490000>, <2,1,490000>,<2,3,490000>, <3,2,490000>,<1,4,490000>, <4,1,490000>,<3,5,490000>, <5,3,490000>,<5,6,490000>, <6,5,490000>,<3,7,490000>, <7,3,490000>,<7,8,490000>, <8,7,490000>,<5,9,490000>, <9,5,490000>,<3,10,490000>, <10,3,490000> }; 


RatePerQuality= [ 0  300  700  1500  2500  3500 ] ;


CacheSpacePerQuality= [ 10000  11.25  26.25  56.25  93.75  131.25 ] ;


UtilityPerQuality= [ 0  0.2  0.4  0.6  0.8  1 ] ;


ObjectsPublishedByProducers=[ [ 1  0  0  0  0  0  0  0  0  0 ]  [ 1  0  0  0  0  0  0  0  0  0 ]  [ 1  0  0  0  0  0  0  0  0  0 ]  [ 1  0  0  0  0  0  0  0  0  0 ]  [ 1  0  0  0  0  0  0  0  0  0 ]  [ 1  0  0  0  0  0  0  0  0  0 ]  [ 1  0  0  0  0  0  0  0  0  0 ]  [ 1  0  0  0  0  0  0  0  0  0 ]  [ 1  0  0  0  0  0  0  0  0  0 ]  [ 1  0  0  0  0  0  0  0  0  0 ] ];

ObjRequests = {  <1,4,584>, <2,4,97>, <3,4,98>, <4,4,687>, <5,4,52>, <6,4,163>, <7,4,225>, <8,4,77>, <9,4,75>, <10,4,128>, <1,6,121>, <2,6,926>, <3,6,657>, <4,6,409>, <5,6,363>, <6,6,130>, <7,6,226>, <8,6,88>, <9,6,20>, <10,6,35>, <1,8,325>, <2,8,123>, <3,8,355>, <4,8,104>, <5,8,350>, <6,8,328>, <7,8,74>, <8,8,111>, <9,8,305>, <10,8,259>, <1,9,1593>, <2,9,1153>, <3,9,406>, <4,9,71>, <5,9,321>, <6,9,124>, <7,9,170>, <8,9,427>, <9,9,26>, <10,9,32>, <1,10,2992>, <2,10,478>, <3,10,367>, <4,10,91>, <5,10,35>, <6,10,201>, <7,10,72>, <8,10,38>, <9,10,149>, <10,10,94> };

MaxCacheStorageAtSingleAS= [ 13.125  13.125  13.125  13.125  13.125  13.125  13.125  13.125  13.125  13.125 ] ;

MaxCacheStorage = 131.25 ;
SolutionGap = 0 ;
